Academic license - for non-commercial use only - expires 2022-11-10
Using license file /home/benedond/Apps/gurobi/gurobi950/gurobi.lic
Using gurobi.env file
Set parameter Threads to value 1
Changed value of parameter TimeLimit to 1200.0
   Prev: inf  Min: 0.0  Max: inf  Default: inf
Gurobi Optimizer version 9.1.2 build v9.1.2rc0 (linux64)
Thread count: 2 physical cores, 4 logical processors, using up to 1 threads
Optimize a model with 1199 rows, 1088 columns and 5196 nonzeros
Model fingerprint: 0x4dac763c
Variable types: 44 continuous, 1044 integer (1044 binary)
Coefficient statistics:
  Matrix range     [2e-01, 4e+02]
  Objective range  [2e-02, 4e-01]
  Bounds range     [1e+00, 1e+00]
  RHS range        [1e+00, 1e+03]
Presolve removed 137 rows and 57 columns
Presolve time: 0.03s
Presolved: 1062 rows, 1031 columns, 4850 nonzeros
Variable types: 43 continuous, 988 integer (988 binary)

Root relaxation: objective 2.162609e+00, 1166 iterations, 0.02 seconds

    Nodes    |    Current Node    |     Objective Bounds      |     Work
 Expl Unexpl |  Obj  Depth IntInf | Incumbent    BestBd   Gap | It/Node Time

     0     0    2.16261    0   83          -    2.16261      -     -    0s
H    0     0                       4.3446001    2.16261  50.2%     -    0s
H    0     0                       4.2046843    2.16261  48.6%     -    0s
     0     0    2.32541    0   95    4.20468    2.32541  44.7%     -    0s
H    0     0                       3.3936948    2.32541  31.5%     -    0s
     0     0    2.33910    0   93    3.39369    2.33910  31.1%     -    0s
     0     0    2.43295    0   77    3.39369    2.43295  28.3%     -    0s
     0     0    2.45639    0   76    3.39369    2.45639  27.6%     -    0s
     0     0    2.62328    0   95    3.39369    2.62328  22.7%     -    0s
     0     0    2.65607    0   93    3.39369    2.65607  21.7%     -    0s
     0     0    2.67042    0  108    3.39369    2.67042  21.3%     -    0s
     0     0    2.67537    0  118    3.39369    2.67537  21.2%     -    0s
     0     0    2.67662    0  129    3.39369    2.67662  21.1%     -    0s
     0     0    2.67673    0  110    3.39369    2.67673  21.1%     -    0s
     0     0    2.70033    0   84    3.39369    2.70033  20.4%     -    0s
H    0     0                       3.3558842    2.70033  19.5%     -    0s
     0     0    2.70646    0   84    3.35588    2.70646  19.4%     -    0s
     0     0    2.70818    0   83    3.35588    2.70818  19.3%     -    0s
     0     0    2.70869    0   88    3.35588    2.70869  19.3%     -    0s
     0     0    2.70869    0   88    3.35588    2.70869  19.3%     -    0s
     0     0    2.71693    0   96    3.35588    2.71693  19.0%     -    0s
     0     0    2.71767    0   84    3.35588    2.71767  19.0%     -    0s
     0     0    2.71993    0   77    3.35588    2.71993  19.0%     -    0s
     0     0    2.72045    0   90    3.35588    2.72045  18.9%     -    0s
     0     0    2.72114    0  102    3.35588    2.72114  18.9%     -    0s
     0     0    2.72126    0  105    3.35588    2.72126  18.9%     -    0s
     0     0    2.73611    0   88    3.35588    2.73611  18.5%     -    0s
     0     0    2.73724    0   89    3.35588    2.73724  18.4%     -    0s
     0     0    2.73731    0   88    3.35588    2.73731  18.4%     -    0s
     0     0    2.74571    0   80    3.35588    2.74571  18.2%     -    0s
     0     0    2.74664    0   84    3.35588    2.74664  18.2%     -    0s
     0     0    2.74668    0   87    3.35588    2.74668  18.2%     -    0s
     0     0    2.76396    0  123    3.35588    2.76396  17.6%     -    0s
H    0     0                       3.0778421    2.76396  10.2%     -    0s
     0     0    2.76765    0  133    3.07784    2.76765  10.1%     -    0s
     0     0    2.76973    0  128    3.07784    2.76973  10.0%     -    0s
     0     0    2.76982    0  124    3.07784    2.76982  10.0%     -    0s
     0     0    2.77518    0  119    3.07784    2.77518  9.83%     -    0s
     0     0    2.77561    0  116    3.07784    2.77561  9.82%     -    0s
     0     0    2.78452    0  147    3.07784    2.78452  9.53%     -    0s
H    0     0                       3.0471579    2.78452  8.62%     -    0s
     0     0    2.78555    0  143    3.04716    2.78555  8.59%     -    0s
     0     0    2.78599    0  151    3.04716    2.78599  8.57%     -    0s
     0     0    2.79055    0  134    3.04716    2.79055  8.42%     -    0s
     0     0    2.79142    0  141    3.04716    2.79142  8.39%     -    0s
     0     0    2.79149    0  135    3.04716    2.79149  8.39%     -    0s
     0     0    2.79543    0  111    3.04716    2.79543  8.26%     -    0s
     0     0    2.79667    0  110    3.04716    2.79667  8.22%     -    0s
     0     0    2.79678    0  134    3.04716    2.79678  8.22%     -    0s
     0     0    2.80118    0  121    3.04716    2.80118  8.07%     -    0s
     0     0    2.80227    0  112    3.04716    2.80227  8.04%     -    0s
     0     0    2.80254    0  126    3.04716    2.80254  8.03%     -    0s
     0     0    2.80908    0   96    3.04716    2.80908  7.81%     -    0s
     0     0    2.80979    0  103    3.04716    2.80979  7.79%     -    0s
     0     0    2.80998    0  118    3.04716    2.80998  7.78%     -    0s
     0     0    2.81358    0  106    3.04716    2.81358  7.67%     -    0s
     0     0    2.81358    0   94    3.04716    2.81358  7.67%     -    0s
     0     2    2.81376    0   94    3.04716    2.81376  7.66%     -    0s
H   52    48                       3.0393158    2.81451  7.40%  79.1    1s
H   54    48                       3.0129474    2.81451  6.59%  76.8    1s
H   56    50                       2.9925474    2.81451  5.95%  77.6    1s
H  135    89                       2.9838106    2.81653  5.61%  66.6    1s
H  300   165                       2.9712106    2.81934  5.11%  67.3    2s
   564   302    2.84728   13  101    2.97121    2.84728  4.17%  58.4    5s
H  565   286                       2.9540421    2.84851  3.57%  58.3    5s
H  570   274                       2.9438106    2.85077  3.16%  57.8    5s
   921   270    2.87376   20  118    2.94381    2.87376  2.38%  72.1   10s
  1844    98    2.93528   37   71    2.94381    2.92510  0.64%  68.1   15s

Cutting planes:
  Cover: 42
  Implied bound: 3
  Clique: 11
  MIR: 106
  StrongCG: 9
  Flow cover: 235
  Mod-K: 3
  RLT: 16
  Relax-and-lift: 205

Explored 1968 nodes (136899 simplex iterations) in 15.23 seconds
Thread count was 1 (of 4 available processors)

Solution count 10: 2.94381 2.95404 2.97121 ... 3.35588

Optimal solution found (tolerance 1.00e-04)
Best objective 2.943810556845e+00, best bound 2.943810556845e+00, gap 0.0000%
